p cnf 967 2484
51 -700 -701 0
-51 700 0
-51 701 0
52 -51 -3 0
-52 51 0
-52 3 0
53 -702 -4 0
-53 702 0
-53 4 0
54 -53 -6 0
-54 53 0
-54 6 0
55 -703 -704 0
-55 703 0
-55 704 0
56 -8 -7 0
-56 8 0
-56 7 0
57 -56 -705 0
-57 56 0
-57 705 0
58 -706 -55 0
-58 706 0
-58 55 0
59 -707 -1 0
-59 707 0
-59 1 0
60 -59 -708 0
-60 59 0
-60 708 0
61 -709 -58 0
-61 709 0
-61 58 0
62 -710 -12 0
-62 710 0
-62 12 0
63 -62 -708 0
-63 62 0
-63 708 0
64 -711 -61 0
-64 711 0
-64 61 0
65 -14 -712 0
-65 14 0
-65 712 0
66 -65 -713 0
-66 65 0
-66 713 0
67 -714 -64 0
-67 714 0
-67 64 0
68 -715 -716 0
-68 715 0
-68 716 0
69 -68 -717 0
-69 68 0
-69 717 0
70 -718 -67 0
-70 718 0
-70 67 0
71 -708 -10 0
-71 708 0
-71 10 0
72 -71 -719 0
-72 71 0
-72 719 0
73 -720 -70 0
-73 720 0
-73 70 0
74 -721 -20 0
-74 721 0
-74 20 0
75 -74 -6 0
-75 74 0
-75 6 0
76 -722 -73 0
-76 722 0
-76 73 0
77 -22 -708 0
-77 22 0
-77 708 0
78 -77 -23 0
-78 77 0
-78 23 0
79 -723 -76 0
-79 723 0
-79 76 0
80 -12 -724 0
-80 12 0
-80 724 0
81 -80 -713 0
-81 80 0
-81 713 0
82 -725 -79 0
-82 725 0
-82 79 0
83 -726 -13 0
-83 726 0
-83 13 0
84 -83 -25 0
-84 83 0
-84 25 0
85 -727 -82 0
-85 727 0
-85 82 0
86 -26 -3 0
-86 26 0
-86 3 0
87 -86 -728 0
-87 86 0
-87 728 0
88 -729 -85 0
-88 729 0
-88 85 0
89 -20 -12 0
-89 20 0
-89 12 0
90 -89 -22 0
-90 89 0
-90 22 0
91 -730 -88 0
-91 730 0
-91 88 0
92 -731 -27 0
-92 731 0
-92 27 0
93 -92 -29 0
-93 92 0
-93 29 0
94 -732 -91 0
-94 732 0
-94 91 0
95 -30 -724 0
-95 30 0
-95 724 0
96 -95 -27 0
-96 95 0
-96 27 0
97 -733 -94 0
-97 733 0
-97 94 0
98 -32 -734 0
-98 32 0
-98 734 0
99 -98 -9 0
-99 98 0
-99 9 0
100 -735 -97 0
-100 735 0
-100 97 0
101 -20 -13 0
-101 20 0
-101 13 0
102 -101 -15 0
-102 101 0
-102 15 0
103 -736 -100 0
-103 736 0
-103 100 0
104 -33 -737 0
-104 33 0
-104 737 0
105 -104 -34 0
-105 104 0
-105 34 0
106 -738 -103 0
-106 738 0
-106 103 0
107 -36 -35 0
-107 36 0
-107 35 0
108 -107 -726 0
-108 107 0
-108 726 0
109 -739 -106 0
-109 739 0
-109 106 0
110 -38 -37 0
-110 38 0
-110 37 0
111 -110 -24 0
-111 110 0
-111 24 0
112 -740 -109 0
-112 740 0
-112 109 0
113 -741 -10 0
-113 741 0
-113 10 0
114 -113 -700 0
-114 113 0
-114 700 0
115 -742 -112 0
-115 742 0
-115 112 0
116 -39 -17 0
-116 39 0
-116 17 0
117 -116 -15 0
-117 116 0
-117 15 0
118 -743 -115 0
-118 743 0
-118 115 0
119 -33 -17 0
-119 33 0
-119 17 0
120 -119 -29 0
-120 119 0
-120 29 0
121 -744 -118 0
-121 744 0
-121 118 0
122 -40 -708 0
-122 40 0
-122 708 0
123 -122 -41 0
-123 122 0
-123 41 0
124 -745 -121 0
-124 745 0
-124 121 0
125 -37 -710 0
-125 37 0
-125 710 0
126 -125 -15 0
-126 125 0
-126 15 0
127 -746 -124 0
-127 746 0
-127 124 0
128 -42 -13 0
-128 42 0
-128 13 0
129 -128 -747 0
-129 128 0
-129 747 0
130 -748 -127 0
-130 748 0
-130 127 0
131 -41 -33 0
-131 41 0
-131 33 0
132 -131 -22 0
-132 131 0
-132 22 0
133 -749 -130 0
-133 749 0
-133 130 0
134 -39 -719 0
-134 39 0
-134 719 0
135 -134 -24 0
-135 134 0
-135 24 0
136 -750 -133 0
-136 750 0
-136 133 0
137 -37 -33 0
-137 37 0
-137 33 0
138 -137 -17 0
-138 137 0
-138 17 0
139 -751 -136 0
-139 751 0
-139 136 0
140 -35 -8 0
-140 35 0
-140 8 0
141 -140 -28 0
-141 140 0
-141 28 0
142 -752 -139 0
-142 752 0
-142 139 0
143 -35 -700 0
-143 35 0
-143 700 0
144 -143 -19 0
-144 143 0
-144 19 0
145 -753 -142 0
-145 753 0
-145 142 0
146 -35 -721 0
-146 35 0
-146 721 0
147 -146 -705 0
-147 146 0
-147 705 0
148 -754 -145 0
-148 754 0
-148 145 0
149 -44 -715 0
-149 44 0
-149 715 0
150 -149 -4 0
-150 149 0
-150 4 0
151 -755 -148 0
-151 755 0
-151 148 0
152 -41 -731 0
-152 41 0
-152 731 0
153 -152 -19 0
-153 152 0
-153 19 0
154 -756 -151 0
-154 756 0
-154 151 0
155 -757 -741 0
-155 757 0
-155 741 0
156 -155 -24 0
-156 155 0
-156 24 0
157 -758 -154 0
-157 758 0
-157 154 0
158 -36 -19 0
-158 36 0
-158 19 0
159 -158 -34 0
-159 158 0
-159 34 0
160 -759 -157 0
-160 759 0
-160 157 0
161 -39 -7 0
-161 39 0
-161 7 0
162 -161 -22 0
-162 161 0
-162 22 0
163 -760 -160 0
-163 760 0
-163 160 0
164 -761 -762 0
-164 761 0
-164 762 0
165 -164 -22 0
-165 164 0
-165 22 0
166 -763 -163 0
-166 763 0
-166 163 0
167 -19 -764 0
-167 19 0
-167 764 0
168 -167 -47 0
-168 167 0
-168 47 0
169 -765 -166 0
-169 765 0
-169 166 0
170 -39 -4 0
-170 39 0
-170 4 0
171 -170 -6 0
-171 170 0
-171 6 0
172 -766 -169 0
-172 766 0
-172 169 0
173 -767 -700 0
-173 767 0
-173 700 0
174 -173 -768 0
-174 173 0
-174 768 0
175 -769 -172 0
-175 769 0
-175 172 0
176 -48 -770 0
-176 48 0
-176 770 0
177 -176 -13 0
-177 176 0
-177 13 0
178 -771 -175 0
-178 771 0
-178 175 0
179 -21 -700 0
-179 21 0
-179 700 0
180 -179 -761 0
-180 179 0
-180 761 0
181 -772 -178 0
-181 772 0
-181 178 0
182 -767 -3 0
-182 767 0
-182 3 0
183 -182 -25 0
-183 182 0
-183 25 0
184 -773 -181 0
-184 773 0
-184 181 0
185 -731 -716 0
-185 731 0
-185 716 0
186 -185 -774 0
-186 185 0
-186 774 0
187 -775 -184 0
-187 775 0
-187 184 0
188 -776 -26 0
-188 776 0
-188 26 0
189 -188 -713 0
-189 188 0
-189 713 0
190 -777 -187 0
-190 777 0
-190 187 0
191 -778 -41 0
-191 778 0
-191 41 0
192 -191 -25 0
-192 191 0
-192 25 0
193 -779 -190 0
-193 779 0
-193 190 0
194 -761 -780 0
-194 761 0
-194 780 0
195 -194 -22 0
-195 194 0
-195 22 0
196 -781 -193 0
-196 781 0
-196 193 0
197 -737 -9 0
-197 737 0
-197 9 0
198 -197 -702 0
-198 197 0
-198 702 0
199 -782 -196 0
-199 782 0
-199 196 0
200 -35 -33 0
-200 35 0
-200 33 0
201 -200 -783 0
-201 200 0
-201 783 0
202 -784 -199 0
-202 784 0
-202 199 0
203 -716 -3 0
-203 716 0
-203 3 0
204 -203 -728 0
-204 203 0
-204 728 0
205 -785 -202 0
-205 785 0
-205 202 0
206 -35 -786 0
-206 35 0
-206 786 0
207 -206 -710 0
-207 206 0
-207 710 0
208 -787 -205 0
-208 787 0
-208 205 0
209 -13 -2 0
-209 13 0
-209 2 0
210 -209 -788 0
-210 209 0
-210 788 0
211 -789 -208 0
-211 789 0
-211 208 0
212 -12 -700 0
-212 12 0
-212 700 0
213 -212 -712 0
-213 212 0
-213 712 0
214 -790 -211 0
-214 790 0
-214 211 0
215 -791 -12 0
-215 791 0
-215 12 0
216 -215 -747 0
-216 215 0
-216 747 0
217 -792 -214 0
-217 792 0
-217 214 0
218 -793 -14 0
-218 793 0
-218 14 0
219 -218 -719 0
-219 218 0
-219 719 0
220 -794 -217 0
-220 794 0
-220 217 0
221 -32 -741 0
-221 32 0
-221 741 0
222 -221 -23 0
-222 221 0
-222 23 0
223 -795 -220 0
-223 795 0
-223 220 0
224 -35 -762 0
-224 35 0
-224 762 0
225 -224 -796 0
-225 224 0
-225 796 0
226 -797 -223 0
-226 797 0
-226 223 0
227 -44 -798 0
-227 44 0
-227 798 0
228 -227 -15 0
-228 227 0
-228 15 0
229 -799 -226 0
-229 799 0
-229 226 0
230 -9 -6 0
-230 9 0
-230 6 0
231 -230 -796 0
-231 230 0
-231 796 0
232 -800 -229 0
-232 800 0
-232 229 0
233 -80 -801 0
-233 80 0
-233 801 0
234 -802 -232 0
-234 802 0
-234 232 0
235 -45 -31 0
-235 45 0
-235 31 0
236 -235 -708 0
-236 235 0
-236 708 0
237 -803 -234 0
-237 803 0
-237 234 0
238 -42 -20 0
-238 42 0
-238 20 0
239 -238 -783 0
-239 238 0
-239 783 0
240 -804 -237 0
-240 804 0
-240 237 0
241 -731 -8 0
-241 731 0
-241 8 0
242 -241 -705 0
-242 241 0
-242 705 0
243 -805 -240 0
-243 805 0
-243 240 0
244 -46 -726 0
-244 46 0
-244 726 0
245 -244 -23 0
-245 244 0
-245 23 0
246 -806 -243 0
-246 806 0
-246 243 0
247 -713 -705 0
-247 713 0
-247 705 0
248 -247 -47 0
-248 247 0
-248 47 0
249 -807 -246 0
-249 807 0
-249 246 0
250 -731 -808 0
-250 731 0
-250 808 0
251 -250 -50 0
-251 250 0
-251 50 0
252 -809 -249 0
-252 809 0
-252 249 0
253 -27 -762 0
-253 27 0
-253 762 0
254 -253 -43 0
-254 253 0
-254 43 0
255 -810 -252 0
-255 810 0
-255 252 0
256 -741 -710 0
-256 741 0
-256 710 0
257 -256 -11 0
-257 256 0
-257 11 0
258 -811 -255 0
-258 811 0
-258 255 0
259 -20 -701 0
-259 20 0
-259 701 0
260 -259 -21 0
-260 259 0
-260 21 0
261 -812 -258 0
-261 812 0
-261 258 0
262 -28 -721 0
-262 28 0
-262 721 0
263 -262 -774 0
-263 262 0
-263 774 0
264 -813 -261 0
-264 813 0
-264 261 0
265 -793 -31 0
-265 793 0
-265 31 0
266 -265 -761 0
-266 265 0
-266 761 0
267 -814 -264 0
-267 814 0
-267 264 0
268 -815 -767 0
-268 815 0
-268 767 0
269 -268 -50 0
-269 268 0
-269 50 0
270 -816 -267 0
-270 816 0
-270 267 0
271 -39 -14 0
-271 39 0
-271 14 0
272 -271 -15 0
-272 271 0
-272 15 0
273 -817 -270 0
-273 817 0
-273 270 0
274 -33 -716 0
-274 33 0
-274 716 0
275 -274 -728 0
-275 274 0
-275 728 0
276 -818 -273 0
-276 818 0
-276 273 0
277 -791 -700 0
-277 791 0
-277 700 0
278 -277 -819 0
-278 277 0
-278 819 0
279 -820 -276 0
-279 820 0
-279 276 0
280 -786 -705 0
-280 786 0
-280 705 0
281 -280 -821 0
-281 280 0
-281 821 0
282 -822 -279 0
-282 822 0
-282 279 0
283 -778 -700 0
-283 778 0
-283 700 0
284 -283 -5 0
-284 283 0
-284 5 0
285 -823 -282 0
-285 823 0
-285 282 0
286 -764 -705 0
-286 764 0
-286 705 0
287 -286 -728 0
-287 286 0
-287 728 0
288 -824 -285 0
-288 824 0
-288 285 0
289 -778 -1 0
-289 778 0
-289 1 0
290 -289 -721 0
-290 289 0
-290 721 0
291 -825 -288 0
-291 825 0
-291 288 0
292 -815 -32 0
-292 815 0
-292 32 0
293 -292 -713 0
-293 292 0
-293 713 0
294 -826 -291 0
-294 826 0
-294 291 0
295 -46 -37 0
-295 46 0
-295 37 0
296 -295 -5 0
-296 295 0
-296 5 0
297 -827 -294 0
-297 827 0
-297 294 0
298 -734 -741 0
-298 734 0
-298 741 0
299 -298 -39 0
-299 298 0
-299 39 0
300 -828 -297 0
-300 828 0
-300 297 0
301 -36 -17 0
-301 36 0
-301 17 0
302 -301 -819 0
-302 301 0
-302 819 0
303 -829 -300 0
-303 829 0
-303 300 0
304 -830 -12 0
-304 830 0
-304 12 0
305 -304 -1 0
-305 304 0
-305 1 0
306 -831 -303 0
-306 831 0
-306 303 0
307 -734 -701 0
-307 734 0
-307 701 0
308 -307 -832 0
-308 307 0
-308 832 0
309 -833 -306 0
-309 833 0
-309 306 0
310 -17 -13 0
-310 17 0
-310 13 0
311 -310 -34 0
-311 310 0
-311 34 0
312 -834 -309 0
-312 834 0
-312 309 0
313 -14 -764 0
-313 14 0
-313 764 0
314 -313 -821 0
-314 313 0
-314 821 0
315 -835 -312 0
-315 835 0
-315 312 0
316 -791 -710 0
-316 791 0
-316 710 0
317 -316 -49 0
-317 316 0
-317 49 0
318 -836 -315 0
-318 836 0
-318 315 0
319 -757 -731 0
-319 757 0
-319 731 0
320 -319 -49 0
-320 319 0
-320 49 0
321 -837 -318 0
-321 837 0
-321 318 0
322 -776 -716 0
-322 776 0
-322 716 0
323 -322 -796 0
-323 322 0
-323 796 0
324 -838 -321 0
-324 838 0
-324 321 0
325 -30 -26 0
-325 30 0
-325 26 0
326 -325 -43 0
-326 325 0
-326 43 0
327 -839 -324 0
-327 839 0
-327 324 0
328 -13 -5 0
-328 13 0
-328 5 0
329 -328 -713 0
-329 328 0
-329 713 0
330 -840 -327 0
-330 840 0
-330 327 0
331 -830 -741 0
-331 830 0
-331 741 0
332 -331 -788 0
-332 331 0
-332 788 0
333 -841 -330 0
-333 841 0
-333 330 0
334 -40 -19 0
-334 40 0
-334 19 0
335 -334 -23 0
-335 334 0
-335 23 0
336 -842 -333 0
-336 842 0
-336 333 0
337 -26 -713 0
-337 26 0
-337 713 0
338 -337 -821 0
-338 337 0
-338 821 0
339 -843 -336 0
-339 843 0
-339 336 0
340 -708 -7 0
-340 708 0
-340 7 0
341 -340 -23 0
-341 340 0
-341 23 0
342 -844 -339 0
-342 844 0
-342 339 0
343 -28 -702 0
-343 28 0
-343 702 0
344 -343 -23 0
-344 343 0
-344 23 0
345 -845 -342 0
-345 845 0
-345 342 0
346 -734 -26 0
-346 734 0
-346 26 0
347 -346 -22 0
-347 346 0
-347 22 0
348 -846 -345 0
-348 846 0
-348 345 0
349 -19 -700 0
-349 19 0
-349 700 0
350 -349 -34 0
-350 349 0
-350 34 0
351 -847 -348 0
-351 847 0
-351 348 0
352 -741 -7 0
-352 741 0
-352 7 0
353 -352 -49 0
-353 352 0
-353 49 0
354 -848 -351 0
-354 848 0
-354 351 0
355 -40 -32 0
-355 40 0
-355 32 0
356 -355 -9 0
-356 355 0
-356 9 0
357 -849 -354 0
-357 849 0
-357 354 0
358 -39 -734 0
-358 39 0
-358 734 0
359 -358 -50 0
-359 358 0
-359 50 0
360 -850 -357 0
-360 850 0
-360 357 0
361 -45 -768 0
-361 45 0
-361 768 0
362 -361 -726 0
-362 361 0
-362 726 0
363 -851 -360 0
-363 851 0
-363 360 0
364 -719 -715 0
-364 719 0
-364 715 0
365 -364 -22 0
-365 364 0
-365 22 0
366 -852 -363 0
-366 852 0
-366 363 0
367 -50 -2 0
-367 50 0
-367 2 0
368 -367 -25 0
-368 367 0
-368 25 0
369 -853 -366 0
-369 853 0
-369 366 0
370 -17 -762 0
-370 17 0
-370 762 0
371 -370 -7 0
-371 370 0
-371 7 0
372 -854 -369 0
-372 854 0
-372 369 0
373 -17 -4 0
-373 17 0
-373 4 0
374 -373 -15 0
-374 373 0
-374 15 0
375 -855 -372 0
-375 855 0
-375 372 0
376 -778 -701 0
-376 778 0
-376 701 0
377 -376 -796 0
-377 376 0
-377 796 0
378 -856 -375 0
-378 856 0
-378 375 0
379 -778 -798 0
-379 778 0
-379 798 0
380 -379 -14 0
-380 379 0
-380 14 0
381 -857 -378 0
-381 857 0
-381 378 0
382 -726 -710 0
-382 726 0
-382 710 0
383 -382 -47 0
-383 382 0
-383 47 0
384 -858 -381 0
-384 858 0
-384 381 0
385 -793 -721 0
-385 793 0
-385 721 0
386 -385 -22 0
-386 385 0
-386 22 0
387 -859 -384 0
-387 859 0
-387 384 0
388 -707 -705 0
-388 707 0
-388 705 0
389 -388 -728 0
-389 388 0
-389 728 0
390 -860 -387 0
-390 860 0
-390 387 0
391 -861 -701 0
-391 861 0
-391 701 0
392 -391 -24 0
-392 391 0
-392 24 0
393 -862 -390 0
-393 862 0
-393 390 0
394 -37 -12 0
-394 37 0
-394 12 0
395 -394 -11 0
-395 394 0
-395 11 0
396 -863 -393 0
-396 863 0
-396 393 0
397 -21 -18 0
-397 21 0
-397 18 0
398 -397 -25 0
-398 397 0
-398 25 0
399 -864 -396 0
-399 864 0
-399 396 0
400 -39 -724 0
-400 39 0
-400 724 0
401 -400 -757 0
-401 400 0
-401 757 0
402 -865 -399 0
-402 865 0
-402 399 0
403 -7 -4 0
-403 7 0
-403 4 0
404 -403 -728 0
-404 403 0
-404 728 0
405 -866 -402 0
-405 866 0
-405 402 0
406 -48 -17 0
-406 48 0
-406 17 0
407 -406 -867 0
-407 406 0
-407 867 0
408 -868 -405 0
-408 868 0
-408 405 0
409 -44 -717 0
-409 44 0
-409 717 0
410 -409 -43 0
-410 409 0
-410 43 0
411 -869 -408 0
-411 869 0
-411 408 0
412 -734 -717 0
-412 734 0
-412 717 0
413 -412 -870 0
-413 412 0
-413 870 0
414 -871 -411 0
-414 871 0
-414 411 0
415 -793 -12 0
-415 793 0
-415 12 0
416 -415 -867 0
-416 415 0
-416 867 0
417 -872 -414 0
-417 872 0
-417 414 0
418 -731 -3 0
-418 731 0
-418 3 0
419 -418 -5 0
-419 418 0
-419 5 0
420 -873 -417 0
-420 873 0
-420 417 0
421 -731 -26 0
-421 731 0
-421 26 0
422 -421 -19 0
-422 421 0
-422 19 0
423 -874 -420 0
-423 874 0
-423 420 0
424 -801 -724 0
-424 801 0
-424 724 0
425 -424 -13 0
-425 424 0
-425 13 0
426 -875 -423 0
-426 875 0
-426 423 0
427 -45 -3 0
-427 45 0
-427 3 0
428 -427 -761 0
-428 427 0
-428 761 0
429 -876 -426 0
-429 876 0
-429 426 0
430 -776 -39 0
-430 776 0
-430 39 0
431 -430 -819 0
-431 430 0
-431 819 0
432 -877 -429 0
-432 877 0
-432 429 0
433 -776 -762 0
-433 776 0
-433 762 0
434 -433 -796 0
-434 433 0
-434 796 0
435 -878 -432 0
-435 878 0
-435 432 0
436 -726 -8 0
-436 726 0
-436 8 0
437 -436 -774 0
-437 436 0
-437 774 0
438 -879 -435 0
-438 879 0
-438 435 0
439 -33 -2 0
-439 33 0
-439 2 0
440 -439 -728 0
-440 439 0
-440 728 0
441 -880 -438 0
-441 880 0
-441 438 0
442 -17 -8 0
-442 17 0
-442 8 0
443 -442 -764 0
-443 442 0
-443 764 0
444 -881 -441 0
-444 881 0
-444 441 0
445 -40 -35 0
-445 40 0
-445 35 0
446 -445 -9 0
-446 445 0
-446 9 0
447 -882 -444 0
-447 882 0
-447 444 0
448 -741 -708 0
-448 741 0
-448 708 0
449 -448 -705 0
-449 448 0
-449 705 0
450 -883 -447 0
-450 883 0
-450 447 0
451 -30 -770 0
-451 30 0
-451 770 0
452 -451 -747 0
-452 451 0
-452 747 0
453 -884 -450 0
-453 884 0
-453 450 0
454 -768 -808 0
-454 768 0
-454 808 0
455 -454 -788 0
-455 454 0
-455 788 0
456 -885 -453 0
-456 885 0
-456 453 0
457 -179 -768 0
-457 179 0
-457 768 0
458 -886 -456 0
-458 886 0
-458 456 0
459 -741 -16 0
-459 741 0
-459 16 0
460 -459 -770 0
-460 459 0
-460 770 0
461 -887 -458 0
-461 887 0
-461 458 0
462 -21 -3 0
-462 21 0
-462 3 0
463 -462 -783 0
-463 462 0
-463 783 0
464 -888 -461 0
-464 888 0
-464 461 0
465 -44 -17 0
-465 44 0
-465 17 0
466 -465 -700 0
-466 465 0
-466 700 0
467 -889 -464 0
-467 889 0
-467 464 0
468 -737 -1 0
-468 737 0
-468 1 0
469 -468 -728 0
-469 468 0
-469 728 0
470 -890 -467 0
-470 890 0
-470 467 0
471 -14 -10 0
-471 14 0
-471 10 0
472 -471 -719 0
-472 471 0
-472 719 0
473 -891 -470 0
-473 891 0
-473 470 0
474 -731 -1 0
-474 731 0
-474 1 0
475 -474 -702 0
-475 474 0
-475 702 0
476 -892 -473 0
-476 892 0
-476 473 0
477 -710 -1 0
-477 710 0
-477 1 0
478 -477 -6 0
-478 477 0
-478 6 0
479 -893 -476 0
-479 893 0
-479 476 0
480 -39 -762 0
-480 39 0
-480 762 0
481 -480 -710 0
-481 480 0
-481 710 0
482 -894 -479 0
-482 894 0
-482 479 0
483 -786 -10 0
-483 786 0
-483 10 0
484 -483 -832 0
-484 483 0
-484 832 0
485 -895 -482 0
-485 895 0
-485 482 0
486 -27 -7 0
-486 27 0
-486 7 0
487 -486 -713 0
-487 486 0
-487 713 0
488 -896 -485 0
-488 896 0
-488 485 0
489 -861 -2 0
-489 861 0
-489 2 0
490 -489 -28 0
-490 489 0
-490 28 0
491 -897 -488 0
-491 897 0
-491 488 0
492 -31 -737 0
-492 31 0
-492 737 0
493 -492 -702 0
-493 492 0
-493 702 0
494 -898 -491 0
-494 898 0
-494 491 0
495 -19 -702 0
-495 19 0
-495 702 0
496 -495 -796 0
-496 495 0
-496 796 0
497 -899 -494 0
-497 899 0
-497 494 0
498 -38 -791 0
-498 38 0
-498 791 0
499 -498 -713 0
-499 498 0
-499 713 0
500 -900 -497 0
-500 900 0
-500 497 0
501 -786 -8 0
-501 786 0
-501 8 0
502 -501 -713 0
-502 501 0
-502 713 0
503 -901 -500 0
-503 901 0
-503 500 0
504 -31 -770 0
-504 31 0
-504 770 0
505 -504 -9 0
-505 504 0
-505 9 0
506 -902 -503 0
-506 902 0
-506 503 0
507 -45 -1 0
-507 45 0
-507 1 0
508 -507 -24 0
-508 507 0
-508 24 0
509 -903 -506 0
-509 903 0
-509 506 0
510 -731 -19 0
-510 731 0
-510 19 0
511 -510 -49 0
-511 510 0
-511 49 0
512 -904 -509 0
-512 904 0
-512 509 0
513 -19 -16 0
-513 19 0
-513 16 0
514 -513 -774 0
-514 513 0
-514 774 0
515 -905 -512 0
-515 905 0
-515 512 0
516 -32 -28 0
-516 32 0
-516 28 0
517 -516 -747 0
-517 516 0
-517 747 0
518 -906 -515 0
-518 906 0
-518 515 0
519 -741 -716 0
-519 741 0
-519 716 0
520 -519 -14 0
-520 519 0
-520 14 0
521 -907 -518 0
-521 907 0
-521 518 0
522 -32 -719 0
-522 32 0
-522 719 0
523 -522 -728 0
-523 522 0
-523 728 0
524 -908 -521 0
-524 908 0
-524 521 0
525 -44 -764 0
-525 44 0
-525 764 0
526 -525 -43 0
-526 525 0
-526 43 0
527 -909 -524 0
-527 909 0
-527 524 0
528 -793 -30 0
-528 793 0
-528 30 0
529 -528 -26 0
-529 528 0
-529 26 0
530 -910 -527 0
-530 910 0
-530 527 0
531 -707 -808 0
-531 707 0
-531 808 0
532 -531 -728 0
-532 531 0
-532 728 0
533 -911 -530 0
-533 911 0
-533 530 0
534 -391 -832 0
-534 391 0
-534 832 0
535 -912 -533 0
-535 912 0
-535 533 0
536 -31 -780 0
-536 31 0
-536 780 0
537 -536 -719 0
-537 536 0
-537 719 0
538 -913 -535 0
-538 913 0
-538 535 0
539 -48 -32 0
-539 48 0
-539 32 0
540 -539 -49 0
-540 539 0
-540 49 0
541 -914 -538 0
-541 914 0
-541 538 0
542 -778 -10 0
-542 778 0
-542 10 0
543 -542 -6 0
-543 542 0
-543 6 0
544 -915 -541 0
-544 915 0
-544 541 0
545 -716 -705 0
-545 716 0
-545 705 0
546 -545 -761 0
-546 545 0
-546 761 0
547 -916 -544 0
-547 916 0
-547 544 0
548 -28 -715 0
-548 28 0
-548 715 0
549 -548 -788 0
-549 548 0
-549 788 0
550 -917 -547 0
-550 917 0
-550 547 0
551 -715 -808 0
-551 715 0
-551 808 0
552 -551 -770 0
-552 551 0
-552 770 0
553 -918 -550 0
-553 918 0
-553 550 0
554 -12 -708 0
-554 12 0
-554 708 0
555 -554 -796 0
-555 554 0
-555 796 0
556 -919 -553 0
-556 919 0
-556 553 0
557 -768 -870 0
-557 768 0
-557 870 0
558 -557 -5 0
-558 557 0
-558 5 0
559 -920 -556 0
-559 920 0
-559 556 0
560 -734 -715 0
-560 734 0
-560 715 0
561 -560 -24 0
-561 560 0
-561 24 0
562 -921 -559 0
-562 921 0
-562 559 0
563 -801 -767 0
-563 801 0
-563 767 0
564 -563 -40 0
-564 563 0
-564 40 0
565 -922 -562 0
-565 922 0
-565 562 0
566 -38 -18 0
-566 38 0
-566 18 0
567 -566 -22 0
-567 566 0
-567 22 0
568 -923 -565 0
-568 923 0
-568 565 0
569 -45 -724 0
-569 45 0
-569 724 0
570 -569 -46 0
-570 569 0
-570 46 0
571 -924 -568 0
-571 924 0
-571 568 0
572 -42 -870 0
-572 42 0
-572 870 0
573 -572 -705 0
-573 572 0
-573 705 0
574 -925 -571 0
-574 925 0
-574 571 0
575 -815 -40 0
-575 815 0
-575 40 0
576 -575 -5 0
-576 575 0
-576 5 0
577 -926 -574 0
-577 926 0
-577 574 0
578 -31 -700 0
-578 31 0
-578 700 0
579 -578 -5 0
-579 578 0
-579 5 0
580 -927 -577 0
-580 927 0
-580 577 0
581 -35 -821 0
-581 35 0
-581 821 0
582 -581 -34 0
-582 581 0
-582 34 0
583 -928 -580 0
-583 928 0
-583 580 0
584 -42 -741 0
-584 42 0
-584 741 0
585 -584 -48 0
-585 584 0
-585 48 0
586 -929 -583 0
-586 929 0
-586 583 0
587 -22 -4 0
-587 22 0
-587 4 0
588 -587 -832 0
-588 587 0
-588 832 0
589 -930 -586 0
-589 930 0
-589 586 0
590 -20 -4 0
-590 20 0
-590 4 0
591 -590 -46 0
-591 590 0
-591 46 0
592 -931 -589 0
-592 931 0
-592 589 0
593 -778 -38 0
-593 778 0
-593 38 0
594 -593 -721 0
-594 593 0
-594 721 0
595 -932 -592 0
-595 932 0
-595 592 0
596 -20 -808 0
-596 20 0
-596 808 0
597 -596 -719 0
-597 596 0
-597 719 0
598 -933 -595 0
-598 933 0
-598 595 0
599 -45 -17 0
-599 45 0
-599 17 0
600 -599 -43 0
-600 599 0
-600 43 0
601 -934 -598 0
-601 934 0
-601 598 0
602 -46 -719 0
-602 46 0
-602 719 0
603 -602 -47 0
-603 602 0
-603 47 0
604 -935 -601 0
-604 935 0
-604 601 0
605 -44 -14 0
-605 44 0
-605 14 0
606 -605 -46 0
-606 605 0
-606 46 0
607 -936 -604 0
-607 936 0
-607 604 0
608 -27 -2 0
-608 27 0
-608 2 0
609 -608 -24 0
-609 608 0
-609 24 0
610 -937 -607 0
-610 937 0
-610 607 0
611 -764 -712 0
-611 764 0
-611 712 0
612 -611 -29 0
-612 611 0
-612 29 0
613 -938 -610 0
-613 938 0
-613 610 0
614 -757 -4 0
-614 757 0
-614 4 0
615 -614 -768 0
-615 614 0
-615 768 0
616 -939 -613 0
-616 939 0
-616 613 0
617 -778 -35 0
-617 778 0
-617 35 0
618 -617 -861 0
-618 617 0
-618 861 0
619 -940 -616 0
-619 940 0
-619 616 0
620 -791 -17 0
-620 791 0
-620 17 0
621 -620 -20 0
-621 620 0
-621 20 0
622 -941 -619 0
-622 941 0
-622 619 0
623 -7 -701 0
-623 7 0
-623 701 0
624 -623 -793 0
-624 623 0
-624 793 0
625 -942 -622 0
-625 942 0
-625 622 0
626 -59 -15 0
-626 59 0
-626 15 0
627 -943 -625 0
-627 943 0
-627 625 0
628 -798 -707 0
-628 798 0
-628 707 0
629 -628 -713 0
-629 628 0
-629 713 0
630 -944 -627 0
-630 944 0
-630 627 0
631 -815 -11 0
-631 815 0
-631 11 0
632 -631 -713 0
-632 631 0
-632 713 0
633 -945 -630 0
-633 945 0
-633 630 0
634 -21 -707 0
-634 21 0
-634 707 0
635 -634 -774 0
-635 634 0
-635 774 0
636 -946 -633 0
-636 946 0
-636 633 0
637 -757 -700 0
-637 757 0
-637 700 0
638 -637 -46 0
-638 637 0
-638 46 0
639 -947 -636 0
-639 947 0
-639 636 0
640 -27 -17 0
-640 27 0
-640 17 0
641 -640 -32 0
-641 640 0
-641 32 0
642 -948 -639 0
-642 948 0
-642 639 0
643 -737 -808 0
-643 737 0
-643 808 0
644 -643 -821 0
-644 643 0
-644 821 0
645 -949 -642 0
-645 949 0
-645 642 0
646 -46 -41 0
-646 46 0
-646 41 0
647 -646 -22 0
-647 646 0
-647 22 0
648 -950 -645 0
-648 950 0
-648 645 0
649 -757 -38 0
-649 757 0
-649 38 0
650 -649 -36 0
-650 649 0
-650 36 0
651 -951 -648 0
-651 951 0
-651 648 0
652 -780 -26 0
-652 780 0
-652 26 0
653 -652 -50 0
-653 652 0
-653 50 0
654 -952 -651 0
-654 952 0
-654 651 0
655 -705 -724 0
-655 705 0
-655 724 0
656 -655 -728 0
-656 655 0
-656 728 0
657 -953 -654 0
-657 953 0
-657 654 0
658 -734 -21 0
-658 734 0
-658 21 0
659 -658 -23 0
-659 658 0
-659 23 0
660 -954 -657 0
-660 954 0
-660 657 0
661 -37 -32 0
-661 37 0
-661 32 0
662 -661 -29 0
-662 661 0
-662 29 0
663 -955 -660 0
-663 955 0
-663 660 0
664 -815 -30 0
-664 815 0
-664 30 0
665 -664 -788 0
-665 664 0
-665 788 0
666 -956 -663 0
-666 956 0
-666 663 0
667 -23 -716 0
-667 23 0
-667 716 0
668 -667 -747 0
-668 667 0
-668 747 0
669 -957 -666 0
-669 957 0
-669 666 0
670 -19 -762 0
-670 19 0
-670 762 0
671 -670 -774 0
-671 670 0
-671 774 0
672 -958 -669 0
-672 958 0
-672 669 0
673 -48 -808 0
-673 48 0
-673 808 0
674 -673 -34 0
-674 673 0
-674 34 0
675 -959 -672 0
-675 959 0
-675 672 0
676 -30 -27 0
-676 30 0
-676 27 0
677 -676 -708 0
-677 676 0
-677 708 0
678 -960 -675 0
-678 960 0
-678 675 0
679 -770 -7 0
-679 770 0
-679 7 0
680 -679 -3 0
-680 679 0
-680 3 0
681 -961 -678 0
-681 961 0
-681 678 0
682 -793 -39 0
-682 793 0
-682 39 0
683 -682 -726 0
-683 682 0
-683 726 0
684 -962 -681 0
-684 962 0
-684 681 0
685 -36 -8 0
-685 36 0
-685 8 0
686 -685 -47 0
-686 685 0
-686 47 0
687 -963 -684 0
-687 963 0
-687 684 0
688 -776 -2 0
-688 776 0
-688 2 0
689 -688 -708 0
-689 688 0
-689 708 0
690 -964 -687 0
-690 964 0
-690 687 0
691 -31 -721 0
-691 31 0
-691 721 0
692 -691 -23 0
-692 691 0
-692 23 0
693 -965 -690 0
-693 965 0
-693 690 0
694 -861 -8 0
-694 861 0
-694 8 0
695 -694 -761 0
-695 694 0
-695 761 0
696 -966 -693 0
-696 966 0
-696 693 0
697 -776 -830 0
-697 776 0
-697 830 0
698 -697 -25 0
-698 697 0
-698 25 0
699 -967 -696 0
-699 967 0
-699 696 0
-700 -2 0
700 2 0
-701 -1 0
701 1 0
-702 -5 0
702 5 0
-703 -54 0
703 54 0
-704 -52 0
704 52 0
-705 -9 0
705 9 0
-706 -57 0
706 57 0
-707 -10 0
707 10 0
-708 -11 0
708 11 0
-709 -60 0
709 60 0
-710 -13 0
710 13 0
-711 -63 0
711 63 0
-712 -6 0
712 6 0
-713 -15 0
713 15 0
-714 -66 0
714 66 0
-715 -17 0
715 17 0
-716 -16 0
716 16 0
-717 -18 0
717 18 0
-718 -69 0
718 69 0
-719 -19 0
719 19 0
-720 -72 0
720 72 0
-721 -21 0
721 21 0
-722 -75 0
722 75 0
-723 -78 0
723 78 0
-724 -7 0
724 7 0
-725 -81 0
725 81 0
-726 -24 0
726 24 0
-727 -84 0
727 84 0
-728 -25 0
728 25 0
-729 -87 0
729 87 0
-730 -90 0
730 90 0
-731 -28 0
731 28 0
-732 -93 0
732 93 0
-733 -96 0
733 96 0
-734 -31 0
734 31 0
-735 -99 0
735 99 0
-736 -102 0
736 102 0
-737 -26 0
737 26 0
-738 -105 0
738 105 0
-739 -108 0
739 108 0
-740 -111 0
740 111 0
-741 -20 0
741 20 0
-742 -114 0
742 114 0
-743 -117 0
743 117 0
-744 -120 0
744 120 0
-745 -123 0
745 123 0
-746 -126 0
746 126 0
-747 -43 0
747 43 0
-748 -129 0
748 129 0
-749 -132 0
749 132 0
-750 -135 0
750 135 0
-751 -138 0
751 138 0
-752 -141 0
752 141 0
-753 -144 0
753 144 0
-754 -147 0
754 147 0
-755 -150 0
755 150 0
-756 -153 0
756 153 0
-757 -45 0
757 45 0
-758 -156 0
758 156 0
-759 -159 0
759 159 0
-760 -162 0
760 162 0
-761 -46 0
761 46 0
-762 -14 0
762 14 0
-763 -165 0
763 165 0
-764 -12 0
764 12 0
-765 -168 0
765 168 0
-766 -171 0
766 171 0
-767 -4 0
767 4 0
-768 -32 0
768 32 0
-769 -174 0
769 174 0
-770 -27 0
770 27 0
-771 -177 0
771 177 0
-772 -180 0
772 180 0
-773 -183 0
773 183 0
-774 -34 0
774 34 0
-775 -186 0
775 186 0
-776 -42 0
776 42 0
-777 -189 0
777 189 0
-778 -44 0
778 44 0
-779 -192 0
779 192 0
-780 -30 0
780 30 0
-781 -195 0
781 195 0
-782 -198 0
782 198 0
-783 -49 0
783 49 0
-784 -201 0
784 201 0
-785 -204 0
785 204 0
-786 -33 0
786 33 0
-787 -207 0
787 207 0
-788 -41 0
788 41 0
-789 -210 0
789 210 0
-790 -213 0
790 213 0
-791 -37 0
791 37 0
-792 -216 0
792 216 0
-793 -40 0
793 40 0
-794 -219 0
794 219 0
-795 -222 0
795 222 0
-796 -29 0
796 29 0
-797 -225 0
797 225 0
-798 -38 0
798 38 0
-799 -228 0
799 228 0
-800 -231 0
800 231 0
-801 -39 0
801 39 0
-802 -233 0
802 233 0
-803 -236 0
803 236 0
-804 -239 0
804 239 0
-805 -242 0
805 242 0
-806 -245 0
806 245 0
-807 -248 0
807 248 0
-808 -8 0
808 8 0
-809 -251 0
809 251 0
-810 -254 0
810 254 0
-811 -257 0
811 257 0
-812 -260 0
812 260 0
-813 -263 0
813 263 0
-814 -266 0
814 266 0
-815 -48 0
815 48 0
-816 -269 0
816 269 0
-817 -272 0
817 272 0
-818 -275 0
818 275 0
-819 -50 0
819 50 0
-820 -278 0
820 278 0
-821 -22 0
821 22 0
-822 -281 0
822 281 0
-823 -284 0
823 284 0
-824 -287 0
824 287 0
-825 -290 0
825 290 0
-826 -293 0
826 293 0
-827 -296 0
827 296 0
-828 -299 0
828 299 0
-829 -302 0
829 302 0
-830 -35 0
830 35 0
-831 -305 0
831 305 0
-832 -47 0
832 47 0
-833 -308 0
833 308 0
-834 -311 0
834 311 0
-835 -314 0
835 314 0
-836 -317 0
836 317 0
-837 -320 0
837 320 0
-838 -323 0
838 323 0
-839 -326 0
839 326 0
-840 -329 0
840 329 0
-841 -332 0
841 332 0
-842 -335 0
842 335 0
-843 -338 0
843 338 0
-844 -341 0
844 341 0
-845 -344 0
845 344 0
-846 -347 0
846 347 0
-847 -350 0
847 350 0
-848 -353 0
848 353 0
-849 -356 0
849 356 0
-850 -359 0
850 359 0
-851 -362 0
851 362 0
-852 -365 0
852 365 0
-853 -368 0
853 368 0
-854 -371 0
854 371 0
-855 -374 0
855 374 0
-856 -377 0
856 377 0
-857 -380 0
857 380 0
-858 -383 0
858 383 0
-859 -386 0
859 386 0
-860 -389 0
860 389 0
-861 -36 0
861 36 0
-862 -392 0
862 392 0
-863 -395 0
863 395 0
-864 -398 0
864 398 0
-865 -401 0
865 401 0
-866 -404 0
866 404 0
-867 -23 0
867 23 0
-868 -407 0
868 407 0
-869 -410 0
869 410 0
-870 -3 0
870 3 0
-871 -413 0
871 413 0
-872 -416 0
872 416 0
-873 -419 0
873 419 0
-874 -422 0
874 422 0
-875 -425 0
875 425 0
-876 -428 0
876 428 0
-877 -431 0
877 431 0
-878 -434 0
878 434 0
-879 -437 0
879 437 0
-880 -440 0
880 440 0
-881 -443 0
881 443 0
-882 -446 0
882 446 0
-883 -449 0
883 449 0
-884 -452 0
884 452 0
-885 -455 0
885 455 0
-886 -457 0
886 457 0
-887 -460 0
887 460 0
-888 -463 0
888 463 0
-889 -466 0
889 466 0
-890 -469 0
890 469 0
-891 -472 0
891 472 0
-892 -475 0
892 475 0
-893 -478 0
893 478 0
-894 -481 0
894 481 0
-895 -484 0
895 484 0
-896 -487 0
896 487 0
-897 -490 0
897 490 0
-898 -493 0
898 493 0
-899 -496 0
899 496 0
-900 -499 0
900 499 0
-901 -502 0
901 502 0
-902 -505 0
902 505 0
-903 -508 0
903 508 0
-904 -511 0
904 511 0
-905 -514 0
905 514 0
-906 -517 0
906 517 0
-907 -520 0
907 520 0
-908 -523 0
908 523 0
-909 -526 0
909 526 0
-910 -529 0
910 529 0
-911 -532 0
911 532 0
-912 -534 0
912 534 0
-913 -537 0
913 537 0
-914 -540 0
914 540 0
-915 -543 0
915 543 0
-916 -546 0
916 546 0
-917 -549 0
917 549 0
-918 -552 0
918 552 0
-919 -555 0
919 555 0
-920 -558 0
920 558 0
-921 -561 0
921 561 0
-922 -564 0
922 564 0
-923 -567 0
923 567 0
-924 -570 0
924 570 0
-925 -573 0
925 573 0
-926 -576 0
926 576 0
-927 -579 0
927 579 0
-928 -582 0
928 582 0
-929 -585 0
929 585 0
-930 -588 0
930 588 0
-931 -591 0
931 591 0
-932 -594 0
932 594 0
-933 -597 0
933 597 0
-934 -600 0
934 600 0
-935 -603 0
935 603 0
-936 -606 0
936 606 0
-937 -609 0
937 609 0
-938 -612 0
938 612 0
-939 -615 0
939 615 0
-940 -618 0
940 618 0
-941 -621 0
941 621 0
-942 -624 0
942 624 0
-943 -626 0
943 626 0
-944 -629 0
944 629 0
-945 -632 0
945 632 0
-946 -635 0
946 635 0
-947 -638 0
947 638 0
-948 -641 0
948 641 0
-949 -644 0
949 644 0
-950 -647 0
950 647 0
-951 -650 0
951 650 0
-952 -653 0
952 653 0
-953 -656 0
953 656 0
-954 -659 0
954 659 0
-955 -662 0
955 662 0
-956 -665 0
956 665 0
-957 -668 0
957 668 0
-958 -671 0
958 671 0
-959 -674 0
959 674 0
-960 -677 0
960 677 0
-961 -680 0
961 680 0
-962 -683 0
962 683 0
-963 -686 0
963 686 0
-964 -689 0
964 689 0
-965 -692 0
965 692 0
-966 -695 0
966 695 0
-967 -698 0
967 698 0
699 0
